# Node Net
3598   1
 33   1
 54   1
3564   1
2340   1
1261   2
3300   2
900   2
 23   2
2281   2
3563   3
1860   3
3060   3
3546   3
541   3
 25   4
 61   4
300   4
1141   5
3550   5
 12   5
3061   6
721   6
3589   6
 29   7
1620   7
1501   7
1981   8
3591   8
2760   8
1980   9
1800   9
3597   9
2160  10
1801  10
 31  10
 17  11
3540  11
3554  12
540  12
3593  13
1140  13
3584  14
1621  14
 15  15
360  15
2640  16
3561  16
